<?xml version="1.0"?> 
<VTKFile type="UnstructuredGrid"> 
   <UnstructuredGrid> 
      <Piece NumberOfPoints="4"  NumberOfCells="1">  
          <Points>  
             <DataArray type="Float64" NumberOfComponents="3" format="ascii">   
0   0   0
1   0   0
0   1   0
0   0   1
             </DataArray>   
          </Points>  
          <Cells>  
             <DataArray type="Int32" Name="connectivity" format="ascii">   
0   1   2   3
              </DataArray>   
              <DataArray type="Int32" Name="offsets" format="ascii">   
4
              </DataArray>   
              <DataArray type="UInt8" Name="types" format="ascii">   
10
              </DataArray>   
          </Cells>  
          <PointData>  
             <DataArray type="Float64" NumberOfComponents="3" Name="Strains" format="ascii">   
0.1   0.2   0.3
0.1   0.2   0.3
0.1   0.2   0.3
0.1   0.2   0.3
0.4   0.5   0.6
0.4   0.5   0.6
0.4   0.5   0.6
0.4   0.5   0.6
              </DataArray>   
             <DataArray type="Float64" NumberOfComponents="3" Name="Stress" format="ascii">   
1.0   2.0   3.0
1.0   2.0   3.0
1.0   2.0   3.0
1.0   2.0   3.0
4.0   5.0   6.0
4.0   5.0   6.0
4.0   5.0   6.0
4.0   5.0   6.0
              </DataArray>   
             <DataArray type="Float64" NumberOfComponents="3" Name="Displacements" format="ascii">   
0.01   0.02   0.03
0.04   0.05   0.06
              </DataArray>   
          </PointData>  
       </Piece>  
   </UnstructuredGrid> 
</VTKFile> 
